Route #1: 1 15 8 24 20 52 40 1
Route #2: 1 14 51 13 23 5 27 44 34 18 1
Route #3: 1 10 58 53 32 12 61 45 1
Route #4: 1 56 43 31 4 16 25 41 1
Route #5: 1 48 57 28 22 30 37 21 7 42 26 1
Route #6: 1 33 38 46 60 3 6 47 1
Route #7: 1 59 9 54 50 1
Route #8: 1 29 2 35 49 17 36 19 1
Route #9: 1 39 11 1
cost 1177.1402396368424
